
Gurobi 10.0.1 (mac64[x86], gurobi_cl) logging started Thu Jun  8 08:52:30 2023

Set parameter Username
Set parameter LogFile to value "gurobi.log"
Academic license - for non-commercial use only - expires 2024-02-21
Using license file /Library/gurobi1001/gurobi.lic
